c Generated map
c Size: 15 * 15, weights in range: 1 to 10, walls: False, with ratio 0.0
c dim 4 of 4
c
p sp 225 420
c graph contains 225 nodes and 420 arcs
c
a 1 16 4
a 16 1 4
a 1 2 9
a 2 1 9
a 2 17 3
a 17 2 3
a 2 3 5
a 3 2 5
a 3 18 9
a 18 3 9
a 3 4 9
a 4 3 9
a 4 19 5
a 19 4 5
a 4 5 8
a 5 4 8
a 5 20 9
a 20 5 9
a 5 6 9
a 6 5 9
a 6 21 8
a 21 6 8
a 6 7 7
a 7 6 7
a 7 22 2
a 22 7 2
a 7 8 6
a 8 7 6
a 8 23 5
a 23 8 5
a 8 9 5
a 9 8 5
a 9 24 8
a 24 9 8
a 9 10 8
a 10 9 8
a 10 25 3
a 25 10 3
a 10 11 3
a 11 10 3
a 11 26 1
a 26 11 1
a 11 12 7
a 12 11 7
a 12 27 6
a 27 12 6
a 12 13 4
a 13 12 4
a 13 28 5
a 28 13 5
a 13 14 1
a 14 13 1
a 14 29 6
a 29 14 6
a 14 15 3
a 15 14 3
a 15 30 4
a 30 15 4
a 16 31 9
a 31 16 9
a 16 17 3
a 17 16 3
a 17 32 1
a 32 17 1
a 17 18 6
a 18 17 6
a 18 33 7
a 33 18 7
a 18 19 1
a 19 18 1
a 19 34 5
a 34 19 5
a 19 20 2
a 20 19 2
a 20 35 6
a 35 20 6
a 20 21 9
a 21 20 9
a 21 36 3
a 36 21 3
a 21 22 7
a 22 21 7
a 22 37 10
a 37 22 10
a 22 23 4
a 23 22 4
a 23 38 9
a 38 23 9
a 23 24 4
a 24 23 4
a 24 39 10
a 39 24 10
a 24 25 10
a 25 24 10
a 25 40 4
a 40 25 4
a 25 26 7
a 26 25 7
a 26 41 10
a 41 26 10
a 26 27 5
a 27 26 5
a 27 42 6
a 42 27 6
a 27 28 1
a 28 27 1
a 28 43 8
a 43 28 8
a 28 29 4
a 29 28 4
a 29 44 4
a 44 29 4
a 29 30 8
a 30 29 8
a 30 45 6
a 45 30 6
a 31 46 5
a 46 31 5
a 31 32 1
a 32 31 1
a 32 47 1
a 47 32 1
a 32 33 8
a 33 32 8
a 33 48 5
a 48 33 5
a 33 34 3
a 34 33 3
a 34 49 7
a 49 34 7
a 34 35 6
a 35 34 6
a 35 50 4
a 50 35 4
a 35 36 7
a 36 35 7
a 36 51 8
a 51 36 8
a 36 37 5
a 37 36 5
a 37 52 3
a 52 37 3
a 37 38 3
a 38 37 3
a 38 53 9
a 53 38 9
a 38 39 5
a 39 38 5
a 39 54 8
a 54 39 8
a 39 40 8
a 40 39 8
a 40 55 8
a 55 40 8
a 40 41 8
a 41 40 8
a 41 56 4
a 56 41 4
a 41 42 3
a 42 41 3
a 42 57 6
a 57 42 6
a 42 43 5
a 43 42 5
a 43 58 9
a 58 43 9
a 43 44 1
a 44 43 1
a 44 59 8
a 59 44 8
a 44 45 6
a 45 44 6
a 45 60 10
a 60 45 10
a 46 61 5
a 61 46 5
a 46 47 6
a 47 46 6
a 47 62 8
a 62 47 8
a 47 48 6
a 48 47 6
a 48 63 6
a 63 48 6
a 48 49 5
a 49 48 5
a 49 64 2
a 64 49 2
a 49 50 8
a 50 49 8
a 50 65 5
a 65 50 5
a 50 51 7
a 51 50 7
a 51 66 3
a 66 51 3
a 51 52 7
a 52 51 7
a 52 67 3
a 67 52 3
a 52 53 6
a 53 52 6
a 53 68 2
a 68 53 2
a 53 54 1
a 54 53 1
a 54 69 7
a 69 54 7
a 54 55 5
a 55 54 5
a 55 70 3
a 70 55 3
a 55 56 4
a 56 55 4
a 56 71 8
a 71 56 8
a 56 57 4
a 57 56 4
a 57 72 9
a 72 57 9
a 57 58 10
a 58 57 10
a 58 73 8
a 73 58 8
a 58 59 7
a 59 58 7
a 59 74 1
a 74 59 1
a 59 60 5
a 60 59 5
a 60 75 2
a 75 60 2
a 61 76 4
a 76 61 4
a 61 62 8
a 62 61 8
a 62 77 4
a 77 62 4
a 62 63 6
a 63 62 6
a 63 78 6
a 78 63 6
a 63 64 8
a 64 63 8
a 64 79 5
a 79 64 5
a 64 65 1
a 65 64 1
a 65 80 8
a 80 65 8
a 65 66 1
a 66 65 1
a 66 81 3
a 81 66 3
a 66 67 1
a 67 66 1
a 67 82 1
a 82 67 1
a 67 68 4
a 68 67 4
a 68 83 5
a 83 68 5
a 68 69 7
a 69 68 7
a 69 84 8
a 84 69 8
a 69 70 3
a 70 69 3
a 70 85 10
a 85 70 10
a 70 71 4
a 71 70 4
a 71 86 9
a 86 71 9
a 71 72 8
a 72 71 8
a 72 87 3
a 87 72 3
a 72 73 5
a 73 72 5
a 73 88 8
a 88 73 8
a 73 74 5
a 74 73 5
a 74 89 6
a 89 74 6
a 74 75 10
a 75 74 10
a 75 90 6
a 90 75 6
a 76 91 1
a 91 76 1
a 76 77 6
a 77 76 6
a 77 92 6
a 92 77 6
a 77 78 2
a 78 77 2
a 78 93 3
a 93 78 3
a 78 79 9
a 79 78 9
a 79 94 6
a 94 79 6
a 79 80 5
a 80 79 5
a 80 95 1
a 95 80 1
a 80 81 7
a 81 80 7
a 81 96 7
a 96 81 7
a 81 82 3
a 82 81 3
a 82 97 3
a 97 82 3
a 82 83 7
a 83 82 7
a 83 98 2
a 98 83 2
a 83 84 3
a 84 83 3
a 84 99 2
a 99 84 2
a 84 85 3
a 85 84 3
a 85 100 9
a 100 85 9
a 85 86 5
a 86 85 5
a 86 101 10
a 101 86 10
a 86 87 2
a 87 86 2
a 87 102 9
a 102 87 9
a 87 88 6
a 88 87 6
a 88 103 3
a 103 88 3
a 88 89 4
a 89 88 4
a 89 104 9
a 104 89 9
a 89 90 6
a 90 89 6
a 90 105 8
a 105 90 8
a 91 106 4
a 106 91 4
a 91 92 10
a 92 91 10
a 92 107 6
a 107 92 6
a 92 93 6
a 93 92 6
a 93 108 9
a 108 93 9
a 93 94 7
a 94 93 7
a 94 109 8
a 109 94 8
a 94 95 6
a 95 94 6
a 95 110 2
a 110 95 2
a 95 96 9
a 96 95 9
a 96 111 3
a 111 96 3
a 96 97 10
a 97 96 10
a 97 112 2
a 112 97 2
a 97 98 2
a 98 97 2
a 98 113 1
a 113 98 1
a 98 99 2
a 99 98 2
a 99 114 7
a 114 99 7
a 99 100 9
a 100 99 9
a 100 115 5
a 115 100 5
a 100 101 5
a 101 100 5
a 101 116 9
a 116 101 9
a 101 102 6
a 102 101 6
a 102 117 9
a 117 102 9
a 102 103 2
a 103 102 2
a 103 118 4
a 118 103 4
a 103 104 5
a 104 103 5
a 104 119 3
a 119 104 3
a 104 105 7
a 105 104 7
a 105 120 5
a 120 105 5
a 106 121 5
a 121 106 5
a 106 107 7
a 107 106 7
a 107 122 10
a 122 107 10
a 107 108 4
a 108 107 4
a 108 123 4
a 123 108 4
a 108 109 9
a 109 108 9
a 109 124 2
a 124 109 2
a 109 110 5
a 110 109 5
a 110 125 10
a 125 110 10
a 110 111 1
a 111 110 1
a 111 126 8
a 126 111 8
a 111 112 9
a 112 111 9
a 112 127 6
a 127 112 6
a 112 113 5
a 113 112 5
a 113 128 8
a 128 113 8
a 113 114 9
a 114 113 9
a 114 129 1
a 129 114 1
a 114 115 6
a 115 114 6
a 115 130 3
a 130 115 3
a 115 116 6
a 116 115 6
a 116 131 6
a 131 116 6
a 116 117 7
a 117 116 7
a 117 132 9
a 132 117 9
a 117 118 10
a 118 117 10
a 118 133 10
a 133 118 10
a 118 119 6
a 119 118 6
a 119 134 1
a 134 119 1
a 119 120 3
a 120 119 3
a 120 135 3
a 135 120 3
a 121 136 4
a 136 121 4
a 121 122 5
a 122 121 5
a 122 137 7
a 137 122 7
a 122 123 8
a 123 122 8
a 123 138 5
a 138 123 5
a 123 124 6
a 124 123 6
a 124 139 4
a 139 124 4
a 124 125 1
a 125 124 1
a 125 140 10
a 140 125 10
a 125 126 5
a 126 125 5
a 126 141 8
a 141 126 8
a 126 127 10
a 127 126 10
a 127 142 8
a 142 127 8
a 127 128 3
a 128 127 3
a 128 143 1
a 143 128 1
a 128 129 2
a 129 128 2
a 129 144 6
a 144 129 6
a 129 130 7
a 130 129 7
a 130 145 1
a 145 130 1
a 130 131 4
a 131 130 4
a 131 146 3
a 146 131 3
a 131 132 3
a 132 131 3
a 132 147 5
a 147 132 5
a 132 133 3
a 133 132 3
a 133 148 2
a 148 133 2
a 133 134 6
a 134 133 6
a 134 149 6
a 149 134 6
a 134 135 4
a 135 134 4
a 135 150 8
a 150 135 8
a 136 151 7
a 151 136 7
a 136 137 1
a 137 136 1
a 137 152 1
a 152 137 1
a 137 138 2
a 138 137 2
a 138 153 3
a 153 138 3
a 138 139 1
a 139 138 1
a 139 154 6
a 154 139 6
a 139 140 5
a 140 139 5
a 140 155 2
a 155 140 2
a 140 141 10
a 141 140 10
a 141 156 6
a 156 141 6
a 141 142 6
a 142 141 6
a 142 157 3
a 157 142 3
a 142 143 5
a 143 142 5
a 143 158 2
a 158 143 2
a 143 144 5
a 144 143 5
a 144 159 8
a 159 144 8
a 144 145 4
a 145 144 4
a 145 160 1
a 160 145 1
a 145 146 9
a 146 145 9
a 146 161 7
a 161 146 7
a 146 147 1
a 147 146 1
a 147 162 2
a 162 147 2
a 147 148 8
a 148 147 8
a 148 163 5
a 163 148 5
a 148 149 6
a 149 148 6
a 149 164 1
a 164 149 1
a 149 150 6
a 150 149 6
a 150 165 6
a 165 150 6
a 151 166 10
a 166 151 10
a 151 152 5
a 152 151 5
a 152 167 9
a 167 152 9
a 152 153 6
a 153 152 6
a 153 168 10
a 168 153 10
a 153 154 2
a 154 153 2
a 154 169 9
a 169 154 9
a 154 155 10
a 155 154 10
a 155 170 7
a 170 155 7
a 155 156 4
a 156 155 4
a 156 171 5
a 171 156 5
a 156 157 8
a 157 156 8
a 157 172 10
a 172 157 10
a 157 158 1
a 158 157 1
a 158 173 7
a 173 158 7
a 158 159 7
a 159 158 7
a 159 174 4
a 174 159 4
a 159 160 2
a 160 159 2
a 160 175 3
a 175 160 3
a 160 161 10
a 161 160 10
a 161 176 5
a 176 161 5
a 161 162 9
a 162 161 9
a 162 177 1
a 177 162 1
a 162 163 8
a 163 162 8
a 163 178 7
a 178 163 7
a 163 164 10
a 164 163 10
a 164 179 7
a 179 164 7
a 164 165 9
a 165 164 9
a 165 180 2
a 180 165 2
a 166 181 9
a 181 166 9
a 166 167 4
a 167 166 4
a 167 182 2
a 182 167 2
a 167 168 4
a 168 167 4
a 168 183 8
a 183 168 8
a 168 169 2
a 169 168 2
a 169 184 6
a 184 169 6
a 169 170 1
a 170 169 1
a 170 185 7
a 185 170 7
a 170 171 10
a 171 170 10
a 171 186 9
a 186 171 9
a 171 172 4
a 172 171 4
a 172 187 10
a 187 172 10
a 172 173 5
a 173 172 5
a 173 188 4
a 188 173 4
a 173 174 7
a 174 173 7
a 174 189 6
a 189 174 6
a 174 175 9
a 175 174 9
a 175 190 10
a 190 175 10
a 175 176 1
a 176 175 1
a 176 191 7
a 191 176 7
a 176 177 10
a 177 176 10
a 177 192 9
a 192 177 9
a 177 178 3
a 178 177 3
a 178 193 2
a 193 178 2
a 178 179 10
a 179 178 10
a 179 194 9
a 194 179 9
a 179 180 4
a 180 179 4
a 180 195 5
a 195 180 5
a 181 196 5
a 196 181 5
a 181 182 9
a 182 181 9
a 182 197 9
a 197 182 9
a 182 183 5
a 183 182 5
a 183 198 7
a 198 183 7
a 183 184 4
a 184 183 4
a 184 199 7
a 199 184 7
a 184 185 7
a 185 184 7
a 185 200 10
a 200 185 10
a 185 186 7
a 186 185 7
a 186 201 9
a 201 186 9
a 186 187 9
a 187 186 9
a 187 202 8
a 202 187 8
a 187 188 10
a 188 187 10
a 188 203 9
a 203 188 9
a 188 189 6
a 189 188 6
a 189 204 5
a 204 189 5
a 189 190 2
a 190 189 2
a 190 205 3
a 205 190 3
a 190 191 1
a 191 190 1
a 191 206 4
a 206 191 4
a 191 192 5
a 192 191 5
a 192 207 10
a 207 192 10
a 192 193 9
a 193 192 9
a 193 208 5
a 208 193 5
a 193 194 7
a 194 193 7
a 194 209 4
a 209 194 4
a 194 195 7
a 195 194 7
a 195 210 3
a 210 195 3
a 196 211 5
a 211 196 5
a 196 197 5
a 197 196 5
a 197 212 3
a 212 197 3
a 197 198 6
a 198 197 6
a 198 213 1
a 213 198 1
a 198 199 2
a 199 198 2
a 199 214 4
a 214 199 4
a 199 200 7
a 200 199 7
a 200 215 1
a 215 200 1
a 200 201 2
a 201 200 2
a 201 216 6
a 216 201 6
a 201 202 8
a 202 201 8
a 202 217 7
a 217 202 7
a 202 203 2
a 203 202 2
a 203 218 3
a 218 203 3
a 203 204 2
a 204 203 2
a 204 219 9
a 219 204 9
a 204 205 10
a 205 204 10
a 205 220 7
a 220 205 7
a 205 206 3
a 206 205 3
a 206 221 6
a 221 206 6
a 206 207 5
a 207 206 5
a 207 222 10
a 222 207 10
a 207 208 5
a 208 207 5
a 208 223 3
a 223 208 3
a 208 209 9
a 209 208 9
a 209 224 10
a 224 209 10
a 209 210 8
a 210 209 8
a 210 225 4
a 225 210 4
a 211 212 8
a 212 211 8
a 212 213 9
a 213 212 9
a 213 214 6
a 214 213 6
a 214 215 9
a 215 214 9
a 215 216 2
a 216 215 2
a 216 217 4
a 217 216 4
a 217 218 1
a 218 217 1
a 218 219 2
a 219 218 2
a 219 220 5
a 220 219 5
a 220 221 10
a 221 220 10
a 221 222 3
a 222 221 3
a 222 223 3
a 223 222 3
a 223 224 10
a 224 223 10
a 224 225 1
a 225 224 1
